1342.8 0
0 35 49 47 0
0 28 30 39 32 36 41 42 34 33 45 48 38 43 0
0 3 57 60 37 62 55 59 6 0
0 4 64 63 52 75 50 0
0 44 46 19 11 27 61 8 7 5 0
0 54 9 21 26 23 0
0 67 69 12 68 65 66 70 25 14 15 18 20 22 13 24 16 40 17 51 2 53 1 56 0
0 72 73 71 58 10 0
0 74 31 29 0
